sifdecoder -A pc64.lnx.gfo -st   DUAL3

 Problem name: DUAL3

 Double precision version will be formed

 The objective function uses 1 nonlinear group
 
 There is 1 linear equality constraint
 
 There are 111 variables bounded from below and above 
 
 
 File successfully decoded
 CUTEST: tools (double precision version) compiled successfully
 CUTEst: ipopt (double precision version) compiled successfully

******************************************************************************
This program contains Ipopt, a library for large-scale nonlinear optimization.
 Ipopt is released as open source code under the Eclipse Public License (EPL).
         For more information visit http://projects.coin-or.org/Ipopt
******************************************************************************

This is Ipopt version trunk, running with linear solver ma57.

Number of nonzeros in equality constraint Jacobian...:      111
Number of nonzeros in inequality constraint Jacobian.:        0
Number of nonzeros in Lagrangian Hessian.............:     6108

Total number of variables............................:      111
                     variables with only lower bounds:        0
                variables with lower and upper bounds:      111
                     variables with only upper bounds:        0
Total number of equality constraints.................:        1
Total number of inequality constraints...............:        0
        inequality constraints with only lower bounds:        0
   inequality constraints with lower and upper bounds:        0
        inequality constraints with only upper bounds:        0

iter    objective    inf_pr   inf_du lg(mu)  ||d||  lg(rg) alpha_du alpha_pr  ls
   0  6.4026062e-01 1.10e-01 5.28e+00  -1.0 0.00e+00    -  0.00e+00 0.00e+00   0
   1  1.9266012e-01 1.48e-15 5.22e-15  -1.0 8.46e-03    -  1.00e+00 1.00e+00h  1
   2  1.8573206e-01 1.09e-16 3.97e-01  -2.5 1.04e-03    -  9.59e-01 1.00e+00f  1
   3  1.6341126e-01 1.18e-16 1.88e-15  -2.5 6.01e-03    -  1.00e+00 1.00e+00f  1
   4  1.4808752e-01 7.58e-16 1.38e-01  -3.8 4.82e-03    -  8.03e-01 1.00e+00f  1
   5  1.4091925e-01 4.21e-16 1.24e-02  -3.8 3.90e-03    -  9.48e-01 1.00e+00f  1
   6  1.3820344e-01 3.11e-16 1.39e-15  -3.8 1.93e-03    -  1.00e+00 1.00e+00f  1
   7  1.3647974e-01 5.55e-17 1.01e-02  -5.7 1.87e-03    -  8.66e-01 1.00e+00f  1
   8  1.3594544e-01 1.78e-16 1.52e-15  -5.7 8.30e-04    -  1.00e+00 1.00e+00f  1
   9  1.3578901e-01 2.19e-17 2.08e-05  -8.6 3.90e-04    -  9.56e-01 9.57e-01f  1
iter    objective    inf_pr   inf_du lg(mu)  ||d||  lg(rg) alpha_du alpha_pr  ls
  10  1.3576262e-01 5.81e-17 9.47e-04  -8.6 1.28e-04    -  1.00e+00 8.82e-01f  1
  11  1.3575655e-01 1.83e-16 1.80e-04  -8.6 6.91e-05    -  1.00e+00 9.63e-01f  1
  12  1.3575592e-01 9.27e-17 2.99e-15  -8.6 3.12e-05    -  1.00e+00 1.00e+00f  1
  13  1.3575587e-01 3.27e-16 2.46e-15  -8.6 1.47e-05    -  1.00e+00 1.00e+00f  1
  14  1.3575584e-01 1.04e-15 1.39e-15  -9.0 7.65e-06    -  1.00e+00 1.00e+00h  1

Number of Iterations....: 14

                                   (scaled)                 (unscaled)
Objective...............:   1.3575584268668259e-01    1.3575584268668259e-01
Dual infeasibility......:   1.3876186717020799e-15    1.3876186717020799e-15
Constraint violation....:   1.0371477981996335e-15    1.0371477981996335e-15
Complementarity.........:   5.1700975750287845e-09    5.1700975750287845e-09
Overall NLP error.......:   5.1700975750287845e-09    5.1700975750287845e-09


Number of objective function evaluations             = 15
Number of objective gradient evaluations             = 15
Number of equality constraint evaluations            = 15
Number of inequality constraint evaluations          = 0
Number of equality constraint Jacobian evaluations   = 15
Number of inequality constraint Jacobian evaluations = 0
Number of Lagrangian Hessian evaluations             = 14
Total CPU secs in IPOPT (w/o function evaluations)   =      0.056
Total CPU secs in NLP function evaluations           =      0.060

EXIT: Optimal Solution Found.

************************ CUTEst statistics ************************


 Package used            :  IPOPT
 Problem                 :  DUAL3     
 # variables             =             111
 # constraints           =               1
 # objective functions   =        0.3100000E+02
 # objective gradients   =        0.1600000E+02
 # objective Hessians    =        0.1500000E+02
 # Hessian-vector prdct  =        0.0000000E+00
 # constraints functions =        0.3200000E+02
 # constraints gradients =        0.1700000E+02
 # constraints Hessians  =        0.1500000E+02
 Exit code               =               0
 Final f                 =        1.3575584268668259D-01
 Bounds feasibility      =        0.0000000000000000D+00
 Set up time             =            0.16 seconds
 Solve time              =            0.25 seconds


******************************************************************

